NAME: random-69-10246
TYPE: TSP
COMMENT: size=69 seed=10246
DIMENSION: 140
EDGE_WEIGHT_TYPE: EUC_2D
NODE_COORD_SECTION
+0 522 745
-0 522 745
+1 454 691
-1 970 103
+2 938 742
-2 177 903
+3 474 294
-3 893 469
+4 670 868
-4 224 4
+5 319 282
-5 416 771
+6 917 12
-6 880 488
+7 222 362
-7 293 773
+8 169 240
-8 233 857
+9 980 404
-9 796 245
+10 325 963
-10 290 110
+11 585 902
-11 351 978
+12 6 85
-12 355 220
+13 76 272
-13 721 758
+14 856 757
-14 575 998
+15 569 493
-15 71 508
+16 523 371
-16 620 305
+17 718 33
-17 198 381
+18 24 984
-18 521 818
+19 771 945
-19 656 97
+20 83 376
-20 920 955
+21 470 820
-21 509 880
+22 666 20
-22 565 972
+23 618 399
-23 760 687
+24 502 468
-24 675 792
+25 511 944
-25 792 619
+26 677 589
-26 555 976
+27 999 155
-27 978 277
+28 16 528
-28 116 639
+29 440 341
-29 794 960
+30 956 11
-30 714 100
+31 245 144
-31 775 54
+32 585 961
-32 796 830
+33 792 885
-33 91 82
+34 330 535
-34 714 685
+35 378 943
-35 942 523
+36 658 704
-36 349 845
+37 209 241
-37 274 99
+38 93 712
-38 347 649
+39 288 176
-39 887 480
+40 525 469
-40 762 366
+41 918 138
-41 377 239
+42 607 376
-42 28 46
+43 530 881
-43 608 419
+44 276 666
-44 730 707
+45 803 184
-45 576 979
+46 390 75
-46 955 846
+47 644 780
-47 708 80
+48 113 818
-48 382 172
+49 23 205
-49 887 889
+50 851 52
-50 470 50
+51 98 782
-51 404 428
+52 401 88
-52 915 855
+53 274 688
-53 670 102
+54 780 109
-54 653 585
+55 944 315
-55 461 347
+56 759 171
-56 877 190
+57 308 69
-57 975 767
+58 393 442
-58 472 455
+59 546 547
-59 80 543
+60 223 195
-60 200 668
+61 471 443
-61 604 837
+62 281 621
-62 742 125
+63 587 818
-63 456 341
+64 114 295
-64 985 301
+65 913 620
-65 918 741
+66 465 708
-66 707 324
+67 292 69
-67 497 74
+68 82 550
-68 867 92
+69 935 127
-69 84 70
PRECEDENCE_SECTION
+0 -0
+1 -1
+2 -2
+3 -3
+4 -4
+5 -5
+6 -6
+7 -7
+8 -8
+9 -9
+10 -10
+11 -11
+12 -12
+13 -13
+14 -14
+15 -15
+16 -16
+17 -17
+18 -18
+19 -19
+20 -20
+21 -21
+22 -22
+23 -23
+24 -24
+25 -25
+26 -26
+27 -27
+28 -28
+29 -29
+30 -30
+31 -31
+32 -32
+33 -33
+34 -34
+35 -35
+36 -36
+37 -37
+38 -38
+39 -39
+40 -40
+41 -41
+42 -42
+43 -43
+44 -44
+45 -45
+46 -46
+47 -47
+48 -48
+49 -49
+50 -50
+51 -51
+52 -52
+53 -53
+54 -54
+55 -55
+56 -56
+57 -57
+58 -58
+59 -59
+60 -60
+61 -61
+62 -62
+63 -63
+64 -64
+65 -65
+66 -66
+67 -67
+68 -68
+69 -69
EOF
